100
32
9
19
27
1
7
4
10
7
10
15
10
4
2
11
4
7
1
9
6
19
1
6
10
8
29
10
17
1
5
22
3
1
3
2
4
4
6
3
2
17
3
2
1
1
1
21
1
1
1
1
16
1
4
3
7
19
2
1
17
17
2
17
1
7
2
2
1
3
1
4
2
1
2
4
2
1
2
2
1
2
4
3
5
2
1
1
5
1
3
1
1
2
1
1
3
3
1
1
2
19